\ File written by Highs .lp filereader
min
 obj: +1 x1 +2 x2 +1 x3 +2 x4 +1 x5 +2 x6 +0 x7 +0 x8 +0 x9 
st
 con1: +1 x1 +2 x2 +1 x3 +1 x5 = +1
 con2: +2 x1 +4 x2 +2 x4 +2 x6 = +2
 con3: +1 x1 +1 x3 +2 x4 +1 x5 = +1
 con4: +2 x2 +2 x3 +4 x4 +2 x6 = +2
 con5: +1 x1 +1 x3 +1 x5 +2 x6 = +1
 con6: +2 x2 +2 x4 +2 x5 +4 x6 = +2
 con7: +1 x1 -1 x4 -1 x7 = +0
 con8: +1 x1 -1 x5 -1 x8 = +0
 con9: +1 x2 -1 x6 -1 x9 = +0
bounds
 +0 <= x1 <= +1
 +0 <= x2 <= +1
 +0 <= x3 <= +1
 +0 <= x4 <= +1
 +0 <= x5 <= +1
 +0 <= x6 <= +1
 x7 free
 x8 free
 x9 free
end
